Route #1: 1 1 7 13 10 14 5 24 27 1 
Route #2: 1 29 21 9 2 33 20 26 30 1 
Route #3: 1 23 11 31 18 6 15 8 1 
Route #4: 1 19 17 25 28 32 22 1 
Route #5: 1 4 16 12 3 1 

Cost 1085.63
Time 0.1780


 * Another infos *

 Iterations: 34 Time: 0.1780 sec - 0.0030 min - 0.0000 horas
0.0000 h 0.0030 min
Problem dimension: 34
